Welcome to the CBC MILP Solver 
Version: 2.10.3 
Build Date: Dec 15 2019 

command line - /Users/andrew.peters/.pyenv/versions/3.8.13/envs/fpl/lib/python3.8/site-packages/pulp/apis/../solverdir/cbc/osx/64/cbc /var/folders/2r/ws5w94055xdfk6l_4nmkx4g40000gq/T/fd45506ce3ff473aaef184dafe58408c-pulp.mps max timeMode elapsed branch printingOptions all solution /var/folders/2r/ws5w94055xdfk6l_4nmkx4g40000gq/T/fd45506ce3ff473aaef184dafe58408c-pulp.sol (default strategy 1)
At line 2 NAME          MODEL
At line 3 ROWS
At line 609 COLUMNS
At line 7148 RHS
At line 7753 BOUNDS
At line 8609 ENDATA
Problem MODEL has 604 rows, 855 columns and 3973 elements
Coin0008I MODEL read with 0 errors
Option for timeMode changed from cpu to elapsed
Continuous objective value is 16.9157 - 0.00 seconds
Cgl0004I processed model has 600 rows, 855 columns (855 integer (855 of which binary)) and 3703 elements
Cbc0038I Initial state - 0 integers unsatisfied sum - 0
Cbc0038I Solution found of -16.9157
Cbc0038I Before mini branch and bound, 855 integers at bound fixed and 0 continuous
Cbc0038I Mini branch and bound did not improve solution (0.01 seconds)
Cbc0038I After 0.01 seconds - Feasibility pump exiting with objective of -16.9157 - took 0.00 seconds
Cbc0012I Integer solution of -16.915691 found by feasibility pump after 0 iterations and 0 nodes (0.01 seconds)
Cbc0001I Search completed - best objective -16.9156914367382, took 0 iterations and 0 nodes (0.01 seconds)
Cbc0035I Maximum depth 0, 0 variables fixed on reduced cost
Cuts at root node changed objective from -16.9157 to -16.9157
Probing was tried 0 times and created 0 cuts of which 0 were active after adding rounds of cuts (0.000 seconds)
Gomory was tried 0 times and created 0 cuts of which 0 were active after adding rounds of cuts (0.000 seconds)
Knapsack was tried 0 times and created 0 cuts of which 0 were active after adding rounds of cuts (0.000 seconds)
Clique was tried 0 times and created 0 cuts of which 0 were active after adding rounds of cuts (0.000 seconds)
MixedIntegerRounding2 was tried 0 times and created 0 cuts of which 0 were active after adding rounds of cuts (0.000 seconds)
FlowCover was tried 0 times and created 0 cuts of which 0 were active after adding rounds of cuts (0.000 seconds)
TwoMirCuts was tried 0 times and created 0 cuts of which 0 were active after adding rounds of cuts (0.000 seconds)
ZeroHalf was tried 0 times and created 0 cuts of which 0 were active after adding rounds of cuts (0.000 seconds)

Result - Optimal solution found

Objective value:                16.91569144
Enumerated nodes:               0
Total iterations:               0
Time (CPU seconds):             0.01
Time (Wallclock seconds):       0.02

Option for printingOptions changed from normal to all
Total time (CPU seconds):       0.02   (Wallclock seconds):       0.02

